[VALIDATOR STDOUT]
Checking plan: /home/jfan5/Safety-gen/runs/benchmark/optic/delivery_20260201_172908/delivery/optic_results/delivery_size7_packages1_seed7001.plan
Plan executed successfully - checking goal
Plan valid
Final value: 35 

Successful plans:
Value: 35
 /home/jfan5/Safety-gen/runs/benchmark/optic/delivery_20260201_172908/delivery/optic_results/delivery_size7_packages1_seed7001.plan 35
